p cnf 67 145
c x0 -> 64
c x1 -> 65
c x2 -> 38
c x3 -> 44
c x4 -> 45
2 3 -1 0
-2 -3 -1 0
2 -3 1 0
-2 3 1 0
4 2 0
-4 -2 0
5 3 0
-5 -3 0
6 -4 0
7 -4 0
-6 -7 4 0
8 -5 0
9 -5 0
-8 -9 5 0
10 6 0
-10 -6 0
11 7 0
-11 -7 0
12 8 0
-12 -8 0
13 9 0
-13 -9 0
14 -10 0
15 -10 0
-14 -15 10 0
16 -11 0
17 -11 0
-16 -17 11 0
18 -12 0
19 -12 0
-18 -19 12 0
20 -13 0
21 -13 0
-20 -21 13 0
22 -14 0
23 -14 0
-22 -23 14 0
17 15 0
-17 -15 0
14 16 0
-14 -16 0
24 -17 0
25 -17 0
-24 -25 17 0
26 -18 0
27 -18 0
-26 -27 18 0
21 19 0
-21 -19 0
18 20 0
-18 -20 0
28 -21 0
29 -21 0
-28 -29 21 0
30 22 0
-30 -22 0
31 23 0
-31 -23 0
32 24 0
-32 -24 0
33 25 0
-33 -25 0
34 26 0
-34 -26 0
35 27 0
-35 -27 0
36 28 0
-36 -28 0
37 29 0
-37 -29 0
38 -30 0
39 -30 0
-38 -39 30 0
40 -31 0
41 -31 0
-40 -41 31 0
42 -32 0
43 -32 0
-42 -43 32 0
44 -33 0
45 -33 0
-44 -45 33 0
38 -34 0
47 -34 0
-38 -47 34 0
48 -35 0
49 -35 0
-48 -49 35 0
50 -36 0
51 -36 0
-50 -51 36 0
44 -37 0
45 -37 0
-44 -45 37 0
54 -39 0
55 -39 0
-54 -55 39 0
38 40 0
-38 -40 0
39 41 0
-39 -41 0
44 42 0
-44 -42 0
45 43 0
-45 -43 0
56 -47 0
57 -47 0
-56 -57 47 0
38 48 0
-38 -48 0
47 49 0
-47 -49 0
44 50 0
-44 -50 0
45 51 0
-45 -51 0
58 54 0
-58 -54 0
59 55 0
-59 -55 0
60 56 0
-60 -56 0
61 57 0
-61 -57 0
62 -58 0
63 -58 0
-62 -63 58 0
64 -59 0
65 -59 0
-64 -65 59 0
66 -60 0
67 -60 0
-66 -67 60 0
64 -61 0
65 -61 0
-64 -65 61 0
64 62 0
-64 -62 0
65 63 0
-65 -63 0
64 66 0
-64 -66 0
65 67 0
-65 -67 0
1 0
